100
75
52
52
52
52
52
52
52
52
51
51
50
50
49
49
49
49
48
48
48
48
48
47
46
46
46
45
43
43
43
42
42
41
41
41
41
41
41
40
40
40
39
39
38
38
37
37
37
37
36
36
36
36
35
35
35
35
34
33
33
33
32
32
32
31
31
31
30
30
30
29
29
29
28
28
28
28
28
27
27
27
27
26
24
24
24
23
23
22
22
21
20
20
20
19
18
17
17
16
16
15
